344197
63,13,37,46,1,33,27,23,4,6,25,28,72,47,34,52,65,67,54,73,64,10,14,76,71,74,61,22,82,44,24,56,77,2,83,31,48,51,38,81,17,70,11,7,69,19,5,50,18,26,36,9,8,41,35,68,45,62,21,59,53,30,20,3,12,16,43,40,66,80,29,58,75,32,60,49,57,79,55,15,42,78,39